
(set-logic ALL) 

(declare-datatype MyList ((Nil) (Cons (head Real) (tail MyList)) )) 
(declare-fun l0 () MyList) 
(declare-fun l1 () MyList) 
(declare-fun l2 () MyList) 
(declare-fun l3 () MyList) 
(declare-fun i0 () Real) 
(declare-fun i1 () Real) 
(assert (is-Nil l0) )
(assert (is-Cons Nil) )
(assert (and (is-Nil l2) (= l3 l2) (= l0 l3) (is-Cons l1)) )
(assert (or (= l0 Nil) (is-Nil Nil) (is-Nil l3) (= l0 Nil)) )
(assert (not (= l3 Nil)) )
(assert (or (= l1 Nil) (= l3 Nil) (= l3 Nil) (= l1 Nil)) )
(assert (not (= l0 Nil)) )
(assert (or (= l1 Nil) (= l1 Nil) (is-Nil Nil)) )
(check-sat)
